nbProcess=2;
nbJobs =2;
nbMchs =2;
Process1=[2,2];
pidle=[1,2];
EnergyS=[10,30];
TB=[10,15];
x=
[
[
[1,1,],
[1,1,],
],
[
[1,1,],
[1,1,],
],
];
ptime =
[
[
[25,32],
[45,21]
],
[
[37,24],
[65,65]
]
];
power1=
[
[
[4.6,4.8,],
[3.3,4.8,],
],
[
[4.3,3.2,],
[3.6,4.1,],
],
];
